54
Lattice="7.874341115293395 0.0 0.0 3.9371705576466973 6.8193794439083675 0.0 0.0 0.0 30.715620996159455" Properties=species:S:1:pos:R:3:tags:I:1 pbc="T T F"
Cu       1.31239019       0.75770883      10.00000000        6
Cu       3.93717056       0.75770883      10.00000000        6
Cu       6.56195093       0.75770883      10.00000000        6
Cu       2.62478037       3.03083531      10.00000000        6
Cu       5.24956074       3.03083531      10.00000000        6
Cu       7.87434112       3.03083531      10.00000000        6
Cu       3.93717056       5.30396179      10.00000000        6
Cu       6.56195093       5.30396179      10.00000000        6
Cu       9.18673130       5.30396179      10.00000000        6
Cu      -0.00000000       1.51541765      12.14312420        5
Cu       2.62478037       1.51541765      12.14312420        5
Cu       5.24956074       1.51541765      12.14312420        5
Cu       1.31239019       3.78854414      12.14312420        5
Cu       3.93717056       3.78854414      12.14312420        5
Cu       6.56195093       3.78854414      12.14312420        5
Cu       2.62478037       6.06167062      12.14312420        5
Cu       5.24956074       6.06167062      12.14312420        5
Cu       7.87434112       6.06167062      12.14312420        5
Cu       0.00000000       0.00000000      14.28624840        4
Cu       2.62478037       0.00000000      14.28624840        4
Cu       5.24956074       0.00000000      14.28624840        4
Cu       1.31239019       2.27312648      14.28624840        4
Cu       3.93717056       2.27312648      14.28624840        4
Cu       6.56195093       2.27312648      14.28624840        4
Cu       2.62478037       4.54625296      14.28624840        4
Cu       5.24956074       4.54625296      14.28624840        4
Cu       7.87434112       4.54625296      14.28624840        4
Cu       1.31239019       0.75770883      16.42937260        3
Cu       3.93717056       0.75770883      16.42937260        3
Cu       6.56195093       0.75770883      16.42937260        3
Cu       2.62478037       3.03083531      16.42937260        3
Cu       5.24956074       3.03083531      16.42937260        3
Cu       7.87434112       3.03083531      16.42937260        3
Cu       3.93717056       5.30396179      16.42937260        3
Cu       6.56195093       5.30396179      16.42937260        3
Cu       9.18673130       5.30396179      16.42937260        3
Cu      -0.00000000       1.51541765      18.57249680        2
Cu       2.62478037       1.51541765      18.57249680        2
Cu       5.24956074       1.51541765      18.57249680        2
Cu       1.31239019       3.78854414      18.57249680        2
Cu       3.93717056       3.78854414      18.57249680        2
Cu       6.56195093       3.78854414      18.57249680        2
Cu       2.62478037       6.06167062      18.57249680        2
Cu       5.24956074       6.06167062      18.57249680        2
Cu       7.87434112       6.06167062      18.57249680        2
Cu       0.00000000       0.00000000      20.71562100        1
Cu       2.62478037       0.00000000      20.71562100        1
Cu       5.24956074       0.00000000      20.71562100        1
Cu       1.31239019       2.27312648      20.71562100        1
Cu       3.93717056       2.27312648      20.71562100        1
Cu       6.56195093       2.27312648      20.71562100        1
Cu       2.62478037       4.54625296      20.71562100        1
Cu       5.24956074       4.54625296      20.71562100        1
Cu       7.87434112       4.54625296      20.71562100        1
